c Random generated cnf formula, satisfiable: false
p cnf 10 50
9 -5 7 0
-7 -9 -6 0
-8 -10 -2 0
-3 -10 -9 0
9 5 3 0
-2 -3 -5 0
-1 2 6 0
-4 1 9 0
-5 -4 -9 0
1 2 3 0
-9 -4 7 0
10 3 -1 0
8 5 -6 0
3 -2 -4 0
-9 7 8 0
1 -10 4 0
7 2 -5 0
5 3 -10 0
-4 2 -3 0
7 3 6 0
-2 -4 -1 0
-6 -3 -10 0
-7 -9 5 0
2 -8 3 0
-3 -10 -9 0
-8 6 3 0
-7 -5 8 0
8 -2 1 0
-4 -1 -9 0
2 1 10 0
-7 10 -4 0
-1 7 2 0
-3 -7 4 0
-10 7 -2 0
-1 6 8 0
-6 7 -8 0
-3 6 -1 0
2 -9 -10 0
-7 4 10 0
10 4 -3 0
8 4 -3 0
1 5 -10 0
1 3 -5 0
3 -5 -4 0
-5 -9 -3 0
6 9 4 0
-5 -3 -7 0
-4 6 -3 0
1 -9 -7 0
9 1 3 0
